# Solution for model Bin Packing Problem
# Objective value = 300
z_0 0
z_1 0
z_2 1
z_3 1
I_0_1_0 0
I_0_2_0 0
I_0_3_0 0
I_0_4_0 0
I_0_5_0 0
I_0_6_0 0
I_0_7_0 0
I_0_8_0 0
I_0_9_0 0
I_0_10_0 0
I_0_11_0 0
I_0_12_0 0
I_0_13_0 0
I_1_0_0 0
I_1_2_0 0
I_1_3_0 0
I_1_4_0 0
I_1_5_0 1
I_1_6_0 0
I_1_7_0 0
I_1_8_0 0
I_1_9_0 1
I_1_10_0 1
I_1_11_0 0
I_1_12_0 0
I_1_13_0 0
I_2_0_0 0
I_2_1_0 0
I_2_3_0 0
I_2_4_0 0
I_2_5_0 0
I_2_6_0 0
I_2_7_0 0
I_2_8_0 0
I_2_9_0 0
I_2_10_0 0
I_2_11_0 0
I_2_12_0 0
I_2_13_0 0
I_3_0_0 0
I_3_1_0 0
I_3_2_0 0
I_3_4_0 0
I_3_5_0 0
I_3_6_0 0
I_3_7_0 0
I_3_8_0 0
I_3_9_0 0
I_3_10_0 0
I_3_11_0 0
I_3_12_0 0
I_3_13_0 0
I_4_0_0 0
I_4_1_0 0
I_4_2_0 0
I_4_3_0 0
I_4_5_0 0
I_4_6_0 0
I_4_7_0 0
I_4_8_0 0
I_4_9_0 0
I_4_10_0 0
I_4_11_0 0
I_4_12_0 0
I_4_13_0 0
I_5_0_0 0
I_5_1_0 0
I_5_2_0 0
I_5_3_0 0
I_5_4_0 0
I_5_6_0 0
I_5_7_0 0
I_5_8_0 1
I_5_9_0 1
I_5_10_0 0
I_5_11_0 0
I_5_12_0 1
I_5_13_0 0
I_6_0_0 0
I_6_1_0 0
I_6_2_0 0
I_6_3_0 0
I_6_4_0 0
I_6_5_0 0
I_6_7_0 0
I_6_8_0 0
I_6_9_0 0
I_6_10_0 0
I_6_11_0 0
I_6_12_0 0
I_6_13_0 0
I_7_0_0 0
I_7_1_0 0
I_7_2_0 0
I_7_3_0 0
I_7_4_0 0
I_7_5_0 0
I_7_6_0 0
I_7_8_0 0
I_7_9_0 0
I_7_10_0 0
I_7_11_0 0
I_7_12_0 0
I_7_13_0 0
I_8_0_0 0
I_8_1_0 0
I_8_2_0 0
I_8_3_0 0
I_8_4_0 0
I_8_5_0 0
I_8_6_0 0
I_8_7_0 0
I_8_9_0 0
I_8_10_0 0
I_8_11_0 0
I_8_12_0 0
I_8_13_0 1
I_9_0_0 0
I_9_1_0 0
I_9_2_0 0
I_9_3_0 0
I_9_4_0 0
I_9_5_0 0
I_9_6_0 0
I_9_7_0 1
I_9_8_0 0
I_9_10_0 0
I_9_11_0 0
I_9_12_0 0
I_9_13_0 0
I_10_0_0 0
I_10_1_0 0
I_10_2_0 0
I_10_3_0 1
I_10_4_0 0
I_10_5_0 0
I_10_6_0 0
I_10_7_0 0
I_10_8_0 0
I_10_9_0 0
I_10_11_0 0
I_10_12_0 0
I_10_13_0 0
I_11_0_0 0
I_11_1_0 0
I_11_2_0 0
I_11_3_0 0
I_11_4_0 0
I_11_5_0 0
I_11_6_0 0
I_11_7_0 0
I_11_8_0 0
I_11_9_0 0
I_11_10_0 0
I_11_12_0 0
I_11_13_0 0
I_12_0_0 0
I_12_1_0 1
I_12_2_0 0
I_12_3_0 0
I_12_4_0 0
I_12_5_0 0
I_12_6_0 0
I_12_7_0 0
I_12_8_0 0
I_12_9_0 0
I_12_10_0 0
I_12_11_0 0
I_12_13_0 0
I_13_0_0 0
I_13_1_0 0
I_13_2_0 0
I_13_3_0 0
I_13_4_0 0
I_13_5_0 0
I_13_6_0 0
I_13_7_0 1
I_13_8_0 0
I_13_9_0 1
I_13_10_0 0
I_13_11_0 0
I_13_12_0 1
I_0_1_1 0
I_0_2_1 0
I_0_3_1 0
I_0_4_1 0
I_0_5_1 0
I_0_6_1 0
I_0_7_1 0
I_0_8_1 0
I_0_9_1 0
I_0_10_1 0
I_0_11_1 0
I_0_12_1 0
I_0_13_1 0
I_1_0_1 0
I_1_2_1 0
I_1_3_1 0
I_1_4_1 0
I_1_5_1 0
I_1_6_1 0
I_1_7_1 0
I_1_8_1 0
I_1_9_1 0
I_1_10_1 0
I_1_11_1 0
I_1_12_1 0
I_1_13_1 0
I_2_0_1 0
I_2_1_1 0
I_2_3_1 0
I_2_4_1 0
I_2_5_1 0
I_2_6_1 0
I_2_7_1 0
I_2_8_1 0
I_2_9_1 0
I_2_10_1 0
I_2_11_1 0
I_2_12_1 0
I_2_13_1 0
I_3_0_1 0
I_3_1_1 0
I_3_2_1 0
I_3_4_1 0
I_3_5_1 0
I_3_6_1 0
I_3_7_1 0
I_3_8_1 0
I_3_9_1 0
I_3_10_1 0
I_3_11_1 0
I_3_12_1 0
I_3_13_1 0
I_4_0_1 0
I_4_1_1 0
I_4_2_1 0
I_4_3_1 0
I_4_5_1 0
I_4_6_1 0
I_4_7_1 0
I_4_8_1 0
I_4_9_1 0
I_4_10_1 0
I_4_11_1 0
I_4_12_1 0
I_4_13_1 0
I_5_0_1 0
I_5_1_1 1
I_5_2_1 0
I_5_3_1 0
I_5_4_1 0
I_5_6_1 0
I_5_7_1 0
I_5_8_1 0
I_5_9_1 1
I_5_10_1 0
I_5_11_1 0
I_5_12_1 0
I_5_13_1 0
I_6_0_1 0
I_6_1_1 0
I_6_2_1 0
I_6_3_1 0
I_6_4_1 0
I_6_5_1 0
I_6_7_1 0
I_6_8_1 0
I_6_9_1 0
I_6_10_1 0
I_6_11_1 0
I_6_12_1 0
I_6_13_1 0
I_7_0_1 0
I_7_1_1 0
I_7_2_1 0
I_7_3_1 0
I_7_4_1 0
I_7_5_1 0
I_7_6_1 0
I_7_8_1 0
I_7_9_1 0
I_7_10_1 0
I_7_11_1 0
I_7_12_1 0
I_7_13_1 0
I_8_0_1 0
I_8_1_1 0
I_8_2_1 0
I_8_3_1 0
I_8_4_1 0
I_8_5_1 0
I_8_6_1 0
I_8_7_1 0
I_8_9_1 0
I_8_10_1 0
I_8_11_1 0
I_8_12_1 0
I_8_13_1 0
I_9_0_1 0
I_9_1_1 0
I_9_2_1 0
I_9_3_1 0
I_9_4_1 0
I_9_5_1 0
I_9_6_1 0
I_9_7_1 0
I_9_8_1 0
I_9_10_1 0
I_9_11_1 0
I_9_12_1 0
I_9_13_1 0
I_10_0_1 0
I_10_1_1 0
I_10_2_1 0
I_10_3_1 0
I_10_4_1 0
I_10_5_1 0
I_10_6_1 0
I_10_7_1 0
I_10_8_1 0
I_10_9_1 0
I_10_11_1 0
I_10_12_1 0
I_10_13_1 0
I_11_0_1 0
I_11_1_1 0
I_11_2_1 0
I_11_3_1 0
I_11_4_1 0
I_11_5_1 0
I_11_6_1 0
I_11_7_1 0
I_11_8_1 0
I_11_9_1 0
I_11_10_1 0
I_11_12_1 0
I_11_13_1 0
I_12_0_1 0
I_12_1_1 0
I_12_2_1 0
I_12_3_1 0
I_12_4_1 0
I_12_5_1 0
I_12_6_1 0
I_12_7_1 0
I_12_8_1 0
I_12_9_1 0
I_12_10_1 0
I_12_11_1 0
I_12_13_1 0
I_13_0_1 0
I_13_1_1 1
I_13_2_1 1
I_13_3_1 0
I_13_4_1 0
I_13_5_1 0
I_13_6_1 0
I_13_7_1 0
I_13_8_1 0
I_13_9_1 1
I_13_10_1 0
I_13_11_1 0
I_13_12_1 1
I_0_1_2 0
I_0_2_2 0
I_0_3_2 0
I_0_4_2 0
I_0_5_2 0
I_0_6_2 0
I_0_7_2 0
I_0_8_2 0
I_0_9_2 0
I_0_10_2 0
I_0_11_2 0
I_0_12_2 0
I_0_13_2 0
I_1_0_2 1
I_1_2_2 1
I_1_3_2 1
I_1_4_2 1
I_1_5_2 0
I_1_6_2 1
I_1_7_2 0
I_1_8_2 0
I_1_9_2 0
I_1_10_2 0
I_1_11_2 1
I_1_12_2 0
I_1_13_2 0
I_2_0_2 1
I_2_1_2 0
I_2_3_2 1
I_2_4_2 0
I_2_5_2 0
I_2_6_2 1
I_2_7_2 0
I_2_8_2 0
I_2_9_2 0
I_2_10_2 0
I_2_11_2 1
I_2_12_2 0
I_2_13_2 0
I_3_0_2 1
I_3_1_2 0
I_3_2_2 0
I_3_4_2 0
I_3_5_2 0
I_3_6_2 0
I_3_7_2 1
I_3_8_2 0
I_3_9_2 0
I_3_10_2 1
I_3_11_2 0
I_3_12_2 0
I_3_13_2 0
I_4_0_2 0
I_4_1_2 0
I_4_2_2 1
I_4_3_2 0
I_4_5_2 0
I_4_6_2 0
I_4_7_2 0
I_4_8_2 0
I_4_9_2 0
I_4_10_2 0
I_4_11_2 0
I_4_12_2 0
I_4_13_2 0
I_5_0_2 1
I_5_1_2 0
I_5_2_2 1
I_5_3_2 0
I_5_4_2 1
I_5_6_2 0
I_5_7_2 0
I_5_8_2 0
I_5_9_2 0
I_5_10_2 0
I_5_11_2 0
I_5_12_2 0
I_5_13_2 0
I_6_0_2 1
I_6_1_2 0
I_6_2_2 0
I_6_3_2 0
I_6_4_2 0
I_6_5_2 0
I_6_7_2 0
I_6_8_2 0
I_6_9_2 0
I_6_10_2 1
I_6_11_2 0
I_6_12_2 0
I_6_13_2 1
I_7_0_2 1
I_7_1_2 0
I_7_2_2 1
I_7_3_2 0
I_7_4_2 1
I_7_5_2 0
I_7_6_2 1
I_7_8_2 0
I_7_9_2 0
I_7_10_2 0
I_7_11_2 0
I_7_12_2 0
I_7_13_2 0
I_8_0_2 1
I_8_1_2 0
I_8_2_2 1
I_8_3_2 0
I_8_4_2 1
I_8_5_2 0
I_8_6_2 1
I_8_7_2 1
I_8_9_2 0
I_8_10_2 1
I_8_11_2 1
I_8_12_2 1
I_8_13_2 0
I_9_0_2 0
I_9_1_2 0
I_9_2_2 1
I_9_3_2 1
I_9_4_2 1
I_9_5_2 1
I_9_6_2 1
I_9_7_2 1
I_9_8_2 0
I_9_10_2 0
I_9_11_2 0
I_9_12_2 0
I_9_13_2 1
I_10_0_2 0
I_10_1_2 0
I_10_2_2 1
I_10_3_2 0
I_10_4_2 1
I_10_5_2 1
I_10_6_2 0
I_10_7_2 1
I_10_8_2 0
I_10_9_2 0
I_10_11_2 0
I_10_12_2 0
I_10_13_2 1
I_11_0_2 1
I_11_1_2 0
I_11_2_2 0
I_11_3_2 1
I_11_4_2 1
I_11_5_2 0
I_11_6_2 1
I_11_7_2 1
I_11_8_2 0
I_11_9_2 0
I_11_10_2 1
I_11_12_2 0
I_11_13_2 1
I_12_0_2 1
I_12_1_2 1
I_12_2_2 0
I_12_3_2 1
I_12_4_2 1
I_12_5_2 0
I_12_6_2 1
I_12_7_2 0
I_12_8_2 0
I_12_9_2 1
I_12_10_2 1
I_12_11_2 1
I_12_13_2 1
I_13_0_2 0
I_13_1_2 0
I_13_2_2 1
I_13_3_2 1
I_13_4_2 1
I_13_5_2 1
I_13_6_2 0
I_13_7_2 0
I_13_8_2 0
I_13_9_2 0
I_13_10_2 0
I_13_11_2 0
I_13_12_2 0
I_0_1_3 0
I_0_2_3 0
I_0_3_3 1
I_0_4_3 1
I_0_5_3 0
I_0_6_3 1
I_0_7_3 1
I_0_8_3 1
I_0_9_3 0
I_0_10_3 0
I_0_11_3 0
I_0_12_3 0
I_0_13_3 0
I_1_0_3 1
I_1_2_3 0
I_1_3_3 1
I_1_4_3 1
I_1_5_3 0
I_1_6_3 0
I_1_7_3 0
I_1_8_3 0
I_1_9_3 0
I_1_10_3 1
I_1_11_3 0
I_1_12_3 0
I_1_13_3 0
I_2_0_3 0
I_2_1_3 0
I_2_3_3 0
I_2_4_3 1
I_2_5_3 0
I_2_6_3 1
I_2_7_3 0
I_2_8_3 0
I_2_9_3 0
I_2_10_3 0
I_2_11_3 0
I_2_12_3 0
I_2_13_3 0
I_3_0_3 0
I_3_1_3 0
I_3_2_3 1
I_3_4_3 0
I_3_5_3 0
I_3_6_3 0
I_3_7_3 1
I_3_8_3 0
I_3_9_3 0
I_3_10_3 1
I_3_11_3 0
I_3_12_3 0
I_3_13_3 0
I_4_0_3 0
I_4_1_3 0
I_4_2_3 0
I_4_3_3 1
I_4_5_3 0
I_4_6_3 1
I_4_7_3 0
I_4_8_3 0
I_4_9_3 0
I_4_10_3 0
I_4_11_3 0
I_4_12_3 0
I_4_13_3 0
I_5_0_3 1
I_5_1_3 0
I_5_2_3 1
I_5_3_3 1
I_5_4_3 1
I_5_6_3 0
I_5_7_3 0
I_5_8_3 0
I_5_9_3 0
I_5_10_3 1
I_5_11_3 0
I_5_12_3 0
I_5_13_3 1
I_6_0_3 0
I_6_1_3 0
I_6_2_3 0
I_6_3_3 0
I_6_4_3 0
I_6_5_3 0
I_6_7_3 0
I_6_8_3 0
I_6_9_3 0
I_6_10_3 1
I_6_11_3 0
I_6_12_3 0
I_6_13_3 0
I_7_0_3 0
I_7_1_3 0
I_7_2_3 0
I_7_3_3 0
I_7_4_3 1
I_7_5_3 0
I_7_6_3 0
I_7_8_3 1
I_7_9_3 0
I_7_10_3 0
I_7_11_3 0
I_7_12_3 0
I_7_13_3 0
I_8_0_3 0
I_8_1_3 1
I_8_2_3 0
I_8_3_3 1
I_8_4_3 1
I_8_5_3 1
I_8_6_3 1
I_8_7_3 0
I_8_9_3 1
I_8_10_3 1
I_8_11_3 0
I_8_12_3 0
I_8_13_3 0
I_9_0_3 1
I_9_1_3 0
I_9_2_3 1
I_9_3_3 1
I_9_4_3 1
I_9_5_3 0
I_9_6_3 1
I_9_7_3 0
I_9_8_3 0
I_9_10_3 1
I_9_11_3 1
I_9_12_3 0
I_9_13_3 1
I_10_0_3 0
I_10_1_3 0
I_10_2_3 0
I_10_3_3 0
I_10_4_3 1
I_10_5_3 0
I_10_6_3 0
I_10_7_3 0
I_10_8_3 0
I_10_9_3 0
I_10_11_3 0
I_10_12_3 0
I_10_13_3 0
I_11_0_3 1
I_11_1_3 0
I_11_2_3 1
I_11_3_3 1
I_11_4_3 1
I_11_5_3 0
I_11_6_3 1
I_11_7_3 0
I_11_8_3 1
I_11_9_3 0
I_11_10_3 1
I_11_12_3 0
I_11_13_3 1
I_12_0_3 1
I_12_1_3 1
I_12_2_3 0
I_12_3_3 1
I_12_4_3 1
I_12_5_3 0
I_12_6_3 1
I_12_7_3 0
I_12_8_3 1
I_12_9_3 1
I_12_10_3 1
I_12_11_3 0
I_12_13_3 0
I_13_0_3 0
I_13_1_3 0
I_13_2_3 0
I_13_3_3 0
I_13_4_3 1
I_13_5_3 0
I_13_6_3 0
I_13_7_3 0
I_13_8_3 1
I_13_9_3 0
I_13_10_3 0
I_13_11_3 0
I_13_12_3 0
b_0_1_0 0
b_0_2_0 0
b_0_3_0 0
b_0_4_0 0
b_0_5_0 0
b_0_6_0 0
b_0_7_0 0
b_0_8_0 1
b_0_9_0 0
b_0_10_0 0
b_0_11_0 0
b_0_12_0 0
b_0_13_0 0
b_1_0_0 0
b_1_2_0 0
b_1_3_0 0
b_1_4_0 0
b_1_5_0 0
b_1_6_0 1
b_1_7_0 0
b_1_8_0 0
b_1_9_0 0
b_1_10_0 0
b_1_11_0 0
b_1_12_0 0
b_1_13_0 0
b_2_0_0 0
b_2_1_0 0
b_2_3_0 0
b_2_4_0 0
b_2_5_0 0
b_2_6_0 0
b_2_7_0 0
b_2_8_0 0
b_2_9_0 0
b_2_10_0 0
b_2_11_0 0
b_2_12_0 0
b_2_13_0 0
b_3_0_0 0
b_3_1_0 0
b_3_2_0 0
b_3_4_0 0
b_3_5_0 0
b_3_6_0 0
b_3_7_0 1
b_3_8_0 0
b_3_9_0 0
b_3_10_0 0
b_3_11_0 0
b_3_12_0 0
b_3_13_0 0
b_4_0_0 0
b_4_1_0 0
b_4_2_0 0
b_4_3_0 0
b_4_5_0 0
b_4_6_0 0
b_4_7_0 0
b_4_8_0 0
b_4_9_0 0
b_4_10_0 0
b_4_11_0 0
b_4_12_0 0
b_4_13_0 0
b_5_0_0 0
b_5_1_0 0
b_5_2_0 0
b_5_3_0 0
b_5_4_0 0
b_5_6_0 0
b_5_7_0 0
b_5_8_0 0
b_5_9_0 0
b_5_10_0 0
b_5_11_0 0
b_5_12_0 0
b_5_13_0 0
b_6_0_0 0
b_6_1_0 0
b_6_2_0 0
b_6_3_0 0
b_6_4_0 1
b_6_5_0 0
b_6_7_0 0
b_6_8_0 1
b_6_9_0 0
b_6_10_0 0
b_6_11_0 0
b_6_12_0 0
b_6_13_0 0
b_7_0_0 0
b_7_1_0 0
b_7_2_0 0
b_7_3_0 0
b_7_4_0 0
b_7_5_0 0
b_7_6_0 0
b_7_8_0 0
b_7_9_0 0
b_7_10_0 0
b_7_11_0 0
b_7_12_0 0
b_7_13_0 0
b_8_0_0 0
b_8_1_0 0
b_8_2_0 0
b_8_3_0 0
b_8_4_0 0
b_8_5_0 0
b_8_6_0 0
b_8_7_0 0
b_8_9_0 0
b_8_10_0 0
b_8_11_0 0
b_8_12_0 0
b_8_13_0 1
b_9_0_0 0
b_9_1_0 0
b_9_2_0 0
b_9_3_0 0
b_9_4_0 0
b_9_5_0 0
b_9_6_0 0
b_9_7_0 0
b_9_8_0 0
b_9_10_0 0
b_9_11_0 0
b_9_12_0 1
b_9_13_0 0
b_10_0_0 0
b_10_1_0 0
b_10_2_0 0
b_10_3_0 0
b_10_4_0 0
b_10_5_0 0
b_10_6_0 0
b_10_7_0 0
b_10_8_0 0
b_10_9_0 0
b_10_11_0 0
b_10_12_0 0
b_10_13_0 0
b_11_0_0 0
b_11_1_0 0
b_11_2_0 0
b_11_3_0 0
b_11_4_0 0
b_11_5_0 0
b_11_6_0 0
b_11_7_0 0
b_11_8_0 0
b_11_9_0 0
b_11_10_0 0
b_11_12_0 0
b_11_13_0 0
b_12_0_0 0
b_12_1_0 0
b_12_2_0 0
b_12_3_0 0
b_12_4_0 0
b_12_5_0 0
b_12_6_0 0
b_12_7_0 0
b_12_8_0 0
b_12_9_0 0
b_12_10_0 0
b_12_11_0 0
b_12_13_0 0
b_13_0_0 0
b_13_1_0 0
b_13_2_0 0
b_13_3_0 0
b_13_4_0 0
b_13_5_0 0
b_13_6_0 0
b_13_7_0 0
b_13_8_0 0
b_13_9_0 0
b_13_10_0 0
b_13_11_0 0
b_13_12_0 0
b_0_1_1 1
b_0_2_1 0
b_0_3_1 0
b_0_4_1 0
b_0_5_1 0
b_0_6_1 0
b_0_7_1 0
b_0_8_1 0
b_0_9_1 0
b_0_10_1 0
b_0_11_1 0
b_0_12_1 0
b_0_13_1 1
b_1_0_1 0
b_1_2_1 1
b_1_3_1 0
b_1_4_1 1
b_1_5_1 0
b_1_6_1 0
b_1_7_1 0
b_1_8_1 0
b_1_9_1 0
b_1_10_1 0
b_1_11_1 0
b_1_12_1 0
b_1_13_1 0
b_2_0_1 0
b_2_1_1 0
b_2_3_1 0
b_2_4_1 0
b_2_5_1 0
b_2_6_1 0
b_2_7_1 0
b_2_8_1 0
b_2_9_1 0
b_2_10_1 0
b_2_11_1 0
b_2_12_1 0
b_2_13_1 0
b_3_0_1 0
b_3_1_1 0
b_3_2_1 0
b_3_4_1 0
b_3_5_1 0
b_3_6_1 0
b_3_7_1 0
b_3_8_1 0
b_3_9_1 0
b_3_10_1 0
b_3_11_1 0
b_3_12_1 0
b_3_13_1 0
b_4_0_1 0
b_4_1_1 0
b_4_2_1 0
b_4_3_1 0
b_4_5_1 0
b_4_6_1 0
b_4_7_1 0
b_4_8_1 0
b_4_9_1 0
b_4_10_1 0
b_4_11_1 0
b_4_12_1 0
b_4_13_1 0
b_5_0_1 0
b_5_1_1 0
b_5_2_1 0
b_5_3_1 0
b_5_4_1 0
b_5_6_1 0
b_5_7_1 0
b_5_8_1 0
b_5_9_1 0
b_5_10_1 0
b_5_11_1 0
b_5_12_1 0
b_5_13_1 1
b_6_0_1 0
b_6_1_1 0
b_6_2_1 0
b_6_3_1 0
b_6_4_1 0
b_6_5_1 0
b_6_7_1 0
b_6_8_1 0
b_6_9_1 0
b_6_10_1 0
b_6_11_1 0
b_6_12_1 0
b_6_13_1 0
b_7_0_1 0
b_7_1_1 1
b_7_2_1 0
b_7_3_1 0
b_7_4_1 0
b_7_5_1 0
b_7_6_1 0
b_7_8_1 0
b_7_9_1 0
b_7_10_1 0
b_7_11_1 0
b_7_12_1 0
b_7_13_1 0
b_8_0_1 0
b_8_1_1 0
b_8_2_1 0
b_8_3_1 0
b_8_4_1 0
b_8_5_1 0
b_8_6_1 0
b_8_7_1 0
b_8_9_1 0
b_8_10_1 0
b_8_11_1 0
b_8_12_1 0
b_8_13_1 0
b_9_0_1 0
b_9_1_1 0
b_9_2_1 0
b_9_3_1 0
b_9_4_1 0
b_9_5_1 0
b_9_6_1 0
b_9_7_1 0
b_9_8_1 0
b_9_10_1 0
b_9_11_1 0
b_9_12_1 1
b_9_13_1 0
b_10_0_1 0
b_10_1_1 0
b_10_2_1 0
b_10_3_1 0
b_10_4_1 0
b_10_5_1 0
b_10_6_1 0
b_10_7_1 0
b_10_8_1 0
b_10_9_1 0
b_10_11_1 0
b_10_12_1 0
b_10_13_1 0
b_11_0_1 0
b_11_1_1 0
b_11_2_1 0
b_11_3_1 0
b_11_4_1 0
b_11_5_1 0
b_11_6_1 0
b_11_7_1 0
b_11_8_1 0
b_11_9_1 0
b_11_10_1 0
b_11_12_1 0
b_11_13_1 0
b_12_0_1 0
b_12_1_1 1
b_12_2_1 0
b_12_3_1 0
b_12_4_1 0
b_12_5_1 0
b_12_6_1 0
b_12_7_1 0
b_12_8_1 0
b_12_9_1 0
b_12_10_1 0
b_12_11_1 0
b_12_13_1 0
b_13_0_1 0
b_13_1_1 0
b_13_2_1 0
b_13_3_1 0
b_13_4_1 0
b_13_5_1 0
b_13_6_1 0
b_13_7_1 1
b_13_8_1 1
b_13_9_1 0
b_13_10_1 0
b_13_11_1 0
b_13_12_1 0
b_0_1_2 0
b_0_2_2 0
b_0_3_2 0
b_0_4_2 0
b_0_5_2 0
b_0_6_2 0
b_0_7_2 0
b_0_8_2 0
b_0_9_2 0
b_0_10_2 0
b_0_11_2 0
b_0_12_2 0
b_0_13_2 1
b_1_0_2 0
b_1_2_2 0
b_1_3_2 0
b_1_4_2 0
b_1_5_2 1
b_1_6_2 0
b_1_7_2 1
b_1_8_2 0
b_1_9_2 1
b_1_10_2 1
b_1_11_2 0
b_1_12_2 0
b_1_13_2 1
b_2_0_2 0
b_2_1_2 0
b_2_3_2 0
b_2_4_2 0
b_2_5_2 1
b_2_6_2 0
b_2_7_2 0
b_2_8_2 0
b_2_9_2 0
b_2_10_2 1
b_2_11_2 0
b_2_12_2 1
b_2_13_2 1
b_3_0_2 0
b_3_1_2 0
b_3_2_2 0
b_3_4_2 0
b_3_5_2 1
b_3_6_2 0
b_3_7_2 0
b_3_8_2 0
b_3_9_2 0
b_3_10_2 0
b_3_11_2 0
b_3_12_2 0
b_3_13_2 0
b_4_0_2 0
b_4_1_2 0
b_4_2_2 0
b_4_3_2 1
b_4_5_2 1
b_4_6_2 0
b_4_7_2 0
b_4_8_2 0
b_4_9_2 0
b_4_10_2 1
b_4_11_2 0
b_4_12_2 0
b_4_13_2 1
b_5_0_2 0
b_5_1_2 0
b_5_2_2 0
b_5_3_2 0
b_5_4_2 0
b_5_6_2 0
b_5_7_2 0
b_5_8_2 0
b_5_9_2 0
b_5_10_2 0
b_5_11_2 0
b_5_12_2 1
b_5_13_2 0
b_6_0_2 0
b_6_1_2 0
b_6_2_2 0
b_6_3_2 0
b_6_4_2 0
b_6_5_2 1
b_6_7_2 0
b_6_8_2 1
b_6_9_2 0
b_6_10_2 0
b_6_11_2 0
b_6_12_2 0
b_6_13_2 0
b_7_0_2 0
b_7_1_2 0
b_7_2_2 0
b_7_3_2 0
b_7_4_2 0
b_7_5_2 1
b_7_6_2 0
b_7_8_2 0
b_7_9_2 0
b_7_10_2 1
b_7_11_2 0
b_7_12_2 1
b_7_13_2 1
b_8_0_2 0
b_8_1_2 0
b_8_2_2 0
b_8_3_2 0
b_8_4_2 0
b_8_5_2 1
b_8_6_2 0
b_8_7_2 0
b_8_9_2 0
b_8_10_2 0
b_8_11_2 0
b_8_12_2 0
b_8_13_2 0
b_9_0_2 0
b_9_1_2 0
b_9_2_2 0
b_9_3_2 0
b_9_4_2 0
b_9_5_2 0
b_9_6_2 0
b_9_7_2 0
b_9_8_2 0
b_9_10_2 1
b_9_11_2 1
b_9_12_2 0
b_9_13_2 0
b_10_0_2 0
b_10_1_2 0
b_10_2_2 0
b_10_3_2 0
b_10_4_2 0
b_10_5_2 0
b_10_6_2 0
b_10_7_2 0
b_10_8_2 0
b_10_9_2 0
b_10_11_2 0
b_10_12_2 0
b_10_13_2 0
b_11_0_2 0
b_11_1_2 0
b_11_2_2 0
b_11_3_2 0
b_11_4_2 0
b_11_5_2 1
b_11_6_2 0
b_11_7_2 0
b_11_8_2 0
b_11_9_2 0
b_11_10_2 0
b_11_12_2 0
b_11_13_2 0
b_12_0_2 0
b_12_1_2 0
b_12_2_2 0
b_12_3_2 0
b_12_4_2 0
b_12_5_2 0
b_12_6_2 0
b_12_7_2 0
b_12_8_2 0
b_12_9_2 0
b_12_10_2 0
b_12_11_2 0
b_12_13_2 0
b_13_0_2 0
b_13_1_2 0
b_13_2_2 0
b_13_3_2 0
b_13_4_2 0
b_13_5_2 0
b_13_6_2 0
b_13_7_2 0
b_13_8_2 0
b_13_9_2 0
b_13_10_2 0
b_13_11_2 0
b_13_12_2 0
b_0_1_3 0
b_0_2_3 1
b_0_3_3 0
b_0_4_3 0
b_0_5_3 0
b_0_6_3 0
b_0_7_3 0
b_0_8_3 0
b_0_9_3 0
b_0_10_3 1
b_0_11_3 0
b_0_12_3 0
b_0_13_3 0
b_1_0_3 0
b_1_2_3 1
b_1_3_3 0
b_1_4_3 0
b_1_5_3 1
b_1_6_3 0
b_1_7_3 1
b_1_8_3 1
b_1_9_3 1
b_1_10_3 0
b_1_11_3 0
b_1_12_3 0
b_1_13_3 1
b_2_0_3 0
b_2_1_3 0
b_2_3_3 0
b_2_4_3 0
b_2_5_3 0
b_2_6_3 0
b_2_7_3 0
b_2_8_3 0
b_2_9_3 0
b_2_10_3 0
b_2_11_3 0
b_2_12_3 0
b_2_13_3 0
b_3_0_3 0
b_3_1_3 0
b_3_2_3 0
b_3_4_3 0
b_3_5_3 0
b_3_6_3 0
b_3_7_3 0
b_3_8_3 0
b_3_9_3 0
b_3_10_3 0
b_3_11_3 0
b_3_12_3 0
b_3_13_3 0
b_4_0_3 0
b_4_1_3 0
b_4_2_3 1
b_4_3_3 0
b_4_5_3 0
b_4_6_3 0
b_4_7_3 1
b_4_8_3 0
b_4_9_3 0
b_4_10_3 0
b_4_11_3 1
b_4_12_3 0
b_4_13_3 0
b_5_0_3 0
b_5_1_3 0
b_5_2_3 0
b_5_3_3 0
b_5_4_3 0
b_5_6_3 1
b_5_7_3 1
b_5_8_3 0
b_5_9_3 0
b_5_10_3 0
b_5_11_3 0
b_5_12_3 0
b_5_13_3 0
b_6_0_3 0
b_6_1_3 0
b_6_2_3 1
b_6_3_3 1
b_6_4_3 0
b_6_5_3 1
b_6_7_3 0
b_6_8_3 0
b_6_9_3 0
b_6_10_3 0
b_6_11_3 1
b_6_12_3 0
b_6_13_3 0
b_7_0_3 0
b_7_1_3 0
b_7_2_3 0
b_7_3_3 0
b_7_4_3 0
b_7_5_3 0
b_7_6_3 0
b_7_8_3 0
b_7_9_3 0
b_7_10_3 0
b_7_11_3 0
b_7_12_3 0
b_7_13_3 0
b_8_0_3 0
b_8_1_3 0
b_8_2_3 0
b_8_3_3 0
b_8_4_3 0
b_8_5_3 0
b_8_6_3 0
b_8_7_3 0
b_8_9_3 0
b_8_10_3 0
b_8_11_3 0
b_8_12_3 0
b_8_13_3 1
b_9_0_3 0
b_9_1_3 0
b_9_2_3 0
b_9_3_3 0
b_9_4_3 0
b_9_5_3 0
b_9_6_3 0
b_9_7_3 1
b_9_8_3 0
b_9_10_3 0
b_9_11_3 0
b_9_12_3 0
b_9_13_3 0
b_10_0_3 0
b_10_1_3 0
b_10_2_3 1
b_10_3_3 0
b_10_4_3 0
b_10_5_3 0
b_10_6_3 0
b_10_7_3 1
b_10_8_3 0
b_10_9_3 0
b_10_11_3 0
b_10_12_3 0
b_10_13_3 1
b_11_0_3 0
b_11_1_3 0
b_11_2_3 0
b_11_3_3 0
b_11_4_3 0
b_11_5_3 0
b_11_6_3 0
b_11_7_3 0
b_11_8_3 0
b_11_9_3 0
b_11_10_3 0
b_11_12_3 0
b_11_13_3 0
b_12_0_3 0
b_12_1_3 0
b_12_2_3 1
b_12_3_3 0
b_12_4_3 0
b_12_5_3 0
b_12_6_3 0
b_12_7_3 0
b_12_8_3 0
b_12_9_3 0
b_12_10_3 0
b_12_11_3 1
b_12_13_3 1
b_13_0_3 0
b_13_1_3 0
b_13_2_3 0
b_13_3_3 0
b_13_4_3 0
b_13_5_3 0
b_13_6_3 0
b_13_7_3 1
b_13_8_3 0
b_13_9_3 0
b_13_10_3 0
b_13_11_3 0
b_13_12_3 0
p_0_0 0
p_0_1 0
p_0_2 0
p_0_3 1
p_1_0 0
p_1_1 0
p_1_2 1
p_1_3 0
p_2_0 0
p_2_1 0
p_2_2 1
p_2_3 0
p_3_0 0
p_3_1 0
p_3_2 0
p_3_3 1
p_4_0 0
p_4_1 0
p_4_2 1
p_4_3 0
p_5_0 0
p_5_1 0
p_5_2 1
p_5_3 0
p_6_0 0
p_6_1 0
p_6_2 0
p_6_3 1
p_7_0 0
p_7_1 0
p_7_2 1
p_7_3 0
p_8_0 0
p_8_1 0
p_8_2 0
p_8_3 1
p_9_0 0
p_9_1 0
p_9_2 1
p_9_3 0
p_10_0 0
p_10_1 0
p_10_2 1
p_10_3 0
p_11_0 0
p_11_1 0
p_11_2 0
p_11_3 1
p_12_0 0
p_12_1 0
p_12_2 0
p_12_3 1
p_13_0 0
p_13_1 0
p_13_2 1
p_13_3 0
rho_0 1
g_0 1
gamma_0_0 0
gamma_0_1 0
gamma_0_2 0
gamma_0_3 0
rho_1 0
g_1 1
gamma_1_0 0
gamma_1_1 0
gamma_1_2 0
gamma_1_3 0
rho_2 1
g_2 1
gamma_2_0 0
gamma_2_1 0
gamma_2_2 0
gamma_2_3 0
rho_3 1
g_3 0
gamma_3_0 0
gamma_3_1 0
gamma_3_2 0
gamma_3_3 0
rho_4 1
g_4 1
gamma_4_0 0
gamma_4_1 0
gamma_4_2 0
gamma_4_3 0
rho_5 1
g_5 0
gamma_5_0 0
gamma_5_1 0
gamma_5_2 0
gamma_5_3 0
rho_6 0
g_6 1
gamma_6_0 0
gamma_6_1 0
gamma_6_2 0
gamma_6_3 0
rho_7 0
g_7 0
gamma_7_0 0
gamma_7_1 0
gamma_7_2 0
gamma_7_3 0
rho_8 1
g_8 1
gamma_8_0 0
gamma_8_1 0
gamma_8_2 0
gamma_8_3 0
rho_9 1
g_9 0
gamma_9_0 0
gamma_9_1 0
gamma_9_2 1
gamma_9_3 0
rho_10 1
g_10 0
gamma_10_0 0
gamma_10_1 0
gamma_10_2 0
gamma_10_3 0
rho_11 1
g_11 0
gamma_11_0 0
gamma_11_1 0
gamma_11_2 0
gamma_11_3 0
rho_12 1
g_12 1
gamma_12_0 0
gamma_12_1 0
gamma_12_2 0
gamma_12_3 0
rho_13 1
g_13 0
gamma_13_0 0
gamma_13_1 0
gamma_13_2 0
gamma_13_3 0
radioactive_0 0
radioactive_1 1
radioactive_2 0
radioactive_3 1
B1_0_1_0 0
B2_0_1_0 0
B1_0_2_0 0
B2_0_2_0 0
B1_0_3_0 0
B2_0_3_0 0
B1_0_4_0 0
B2_0_4_0 0
B1_0_5_0 0
B2_0_5_0 0
B1_0_6_0 0
B2_0_6_0 0
B1_0_7_0 0
B2_0_7_0 0
B1_0_8_0 0
B2_0_8_0 0
B1_0_9_0 0
B2_0_9_0 0
B1_0_10_0 0
B2_0_10_0 0
B1_0_11_0 0
B2_0_11_0 0
B1_0_12_0 0
B2_0_12_0 0
B1_0_13_0 0
B2_0_13_0 0
B1_1_0_0 0
B2_1_0_0 0
B1_1_2_0 0
B2_1_2_0 0
B1_1_3_0 0
B2_1_3_0 0
B1_1_4_0 0
B2_1_4_0 0
B1_1_5_0 0
B2_1_5_0 0
B1_1_6_0 0
B2_1_6_0 0
B1_1_7_0 0
B2_1_7_0 0
B1_1_8_0 0
B2_1_8_0 0
B1_1_9_0 0
B2_1_9_0 0
B1_1_10_0 0
B2_1_10_0 0
B1_1_11_0 0
B2_1_11_0 0
B1_1_12_0 0
B2_1_12_0 0
B1_1_13_0 0
B2_1_13_0 0
B1_2_0_0 0
B2_2_0_0 0
B1_2_1_0 0
B2_2_1_0 0
B1_2_3_0 0
B2_2_3_0 0
B1_2_4_0 0
B2_2_4_0 0
B1_2_5_0 0
B2_2_5_0 0
B1_2_6_0 0
B2_2_6_0 0
B1_2_7_0 0
B2_2_7_0 0
B1_2_8_0 0
B2_2_8_0 0
B1_2_9_0 0
B2_2_9_0 0
B1_2_10_0 0
B2_2_10_0 0
B1_2_11_0 0
B2_2_11_0 0
B1_2_12_0 0
B2_2_12_0 0
B1_2_13_0 0
B2_2_13_0 0
B1_3_0_0 0
B2_3_0_0 0
B1_3_1_0 0
B2_3_1_0 0
B1_3_2_0 0
B2_3_2_0 0
B1_3_4_0 0
B2_3_4_0 0
B1_3_5_0 0
B2_3_5_0 0
B1_3_6_0 0
B2_3_6_0 0
B1_3_7_0 0
B2_3_7_0 0
B1_3_8_0 0
B2_3_8_0 0
B1_3_9_0 0
B2_3_9_0 0
B1_3_10_0 0
B2_3_10_0 0
B1_3_11_0 0
B2_3_11_0 0
B1_3_12_0 0
B2_3_12_0 0
B1_3_13_0 0
B2_3_13_0 0
B1_4_0_0 0
B2_4_0_0 0
B1_4_1_0 0
B2_4_1_0 0
B1_4_2_0 0
B2_4_2_0 0
B1_4_3_0 0
B2_4_3_0 0
B1_4_5_0 0
B2_4_5_0 0
B1_4_6_0 0
B2_4_6_0 0
B1_4_7_0 0
B2_4_7_0 0
B1_4_8_0 0
B2_4_8_0 0
B1_4_9_0 0
B2_4_9_0 0
B1_4_10_0 0
B2_4_10_0 0
B1_4_11_0 0
B2_4_11_0 0
B1_4_12_0 0
B2_4_12_0 0
B1_4_13_0 0
B2_4_13_0 0
B1_5_0_0 0
B2_5_0_0 0
B1_5_1_0 0
B2_5_1_0 0
B1_5_2_0 0
B2_5_2_0 0
B1_5_3_0 0
B2_5_3_0 0
B1_5_4_0 0
B2_5_4_0 0
B1_5_6_0 0
B2_5_6_0 0
B1_5_7_0 0
B2_5_7_0 0
B1_5_8_0 0
B2_5_8_0 0
B1_5_9_0 0
B2_5_9_0 0
B1_5_10_0 0
B2_5_10_0 0
B1_5_11_0 0
B2_5_11_0 0
B1_5_12_0 0
B2_5_12_0 0
B1_5_13_0 0
B2_5_13_0 0
B1_6_0_0 0
B2_6_0_0 0
B1_6_1_0 0
B2_6_1_0 0
B1_6_2_0 0
B2_6_2_0 0
B1_6_3_0 0
B2_6_3_0 0
B1_6_4_0 0
B2_6_4_0 0
B1_6_5_0 0
B2_6_5_0 0
B1_6_7_0 0
B2_6_7_0 0
B1_6_8_0 0
B2_6_8_0 0
B1_6_9_0 0
B2_6_9_0 0
B1_6_10_0 0
B2_6_10_0 0
B1_6_11_0 0
B2_6_11_0 0
B1_6_12_0 0
B2_6_12_0 0
B1_6_13_0 0
B2_6_13_0 0
B1_7_0_0 0
B2_7_0_0 0
B1_7_1_0 0
B2_7_1_0 0
B1_7_2_0 0
B2_7_2_0 0
B1_7_3_0 0
B2_7_3_0 0
B1_7_4_0 0
B2_7_4_0 0
B1_7_5_0 0
B2_7_5_0 0
B1_7_6_0 0
B2_7_6_0 0
B1_7_8_0 0
B2_7_8_0 0
B1_7_9_0 0
B2_7_9_0 0
B1_7_10_0 0
B2_7_10_0 0
B1_7_11_0 0
B2_7_11_0 0
B1_7_12_0 0
B2_7_12_0 0
B1_7_13_0 0
B2_7_13_0 0
B1_8_0_0 0
B2_8_0_0 0
B1_8_1_0 0
B2_8_1_0 0
B1_8_2_0 0
B2_8_2_0 0
B1_8_3_0 0
B2_8_3_0 0
B1_8_4_0 0
B2_8_4_0 0
B1_8_5_0 0
B2_8_5_0 0
B1_8_6_0 0
B2_8_6_0 0
B1_8_7_0 0
B2_8_7_0 0
B1_8_9_0 0
B2_8_9_0 0
B1_8_10_0 0
B2_8_10_0 0
B1_8_11_0 0
B2_8_11_0 0
B1_8_12_0 0
B2_8_12_0 0
B1_8_13_0 0
B2_8_13_0 0
B1_9_0_0 0
B2_9_0_0 0
B1_9_1_0 0
B2_9_1_0 0
B1_9_2_0 0
B2_9_2_0 0
B1_9_3_0 0
B2_9_3_0 0
B1_9_4_0 0
B2_9_4_0 0
B1_9_5_0 0
B2_9_5_0 0
B1_9_6_0 0
B2_9_6_0 0
B1_9_7_0 0
B2_9_7_0 0
B1_9_8_0 0
B2_9_8_0 0
B1_9_10_0 0
B2_9_10_0 0
B1_9_11_0 0
B2_9_11_0 0
B1_9_12_0 0
B2_9_12_0 0
B1_9_13_0 0
B2_9_13_0 0
B1_10_0_0 0
B2_10_0_0 0
B1_10_1_0 0
B2_10_1_0 0
B1_10_2_0 0
B2_10_2_0 0
B1_10_3_0 0
B2_10_3_0 0
B1_10_4_0 0
B2_10_4_0 0
B1_10_5_0 0
B2_10_5_0 0
B1_10_6_0 0
B2_10_6_0 0
B1_10_7_0 0
B2_10_7_0 0
B1_10_8_0 0
B2_10_8_0 0
B1_10_9_0 0
B2_10_9_0 0
B1_10_11_0 0
B2_10_11_0 0
B1_10_12_0 0
B2_10_12_0 0
B1_10_13_0 0
B2_10_13_0 0
B1_11_0_0 0
B2_11_0_0 0
B1_11_1_0 0
B2_11_1_0 0
B1_11_2_0 0
B2_11_2_0 0
B1_11_3_0 0
B2_11_3_0 0
B1_11_4_0 0
B2_11_4_0 0
B1_11_5_0 0
B2_11_5_0 0
B1_11_6_0 0
B2_11_6_0 0
B1_11_7_0 0
B2_11_7_0 0
B1_11_8_0 0
B2_11_8_0 0
B1_11_9_0 0
B2_11_9_0 0
B1_11_10_0 0
B2_11_10_0 0
B1_11_12_0 0
B2_11_12_0 0
B1_11_13_0 0
B2_11_13_0 0
B1_12_0_0 0
B2_12_0_0 0
B1_12_1_0 0
B2_12_1_0 0
B1_12_2_0 0
B2_12_2_0 0
B1_12_3_0 0
B2_12_3_0 0
B1_12_4_0 0
B2_12_4_0 0
B1_12_5_0 0
B2_12_5_0 0
B1_12_6_0 0
B2_12_6_0 0
B1_12_7_0 0
B2_12_7_0 0
B1_12_8_0 0
B2_12_8_0 0
B1_12_9_0 0
B2_12_9_0 0
B1_12_10_0 0
B2_12_10_0 0
B1_12_11_0 0
B2_12_11_0 0
B1_12_13_0 0
B2_12_13_0 0
B1_13_0_0 0
B2_13_0_0 0
B1_13_1_0 0
B2_13_1_0 0
B1_13_2_0 0
B2_13_2_0 0
B1_13_3_0 0
B2_13_3_0 0
B1_13_4_0 0
B2_13_4_0 0
B1_13_5_0 0
B2_13_5_0 0
B1_13_6_0 0
B2_13_6_0 0
B1_13_7_0 0
B2_13_7_0 0
B1_13_8_0 0
B2_13_8_0 0
B1_13_9_0 0
B2_13_9_0 0
B1_13_10_0 0
B2_13_10_0 0
B1_13_11_0 0
B2_13_11_0 0
B1_13_12_0 0
B2_13_12_0 0
B1_0_1_1 0
B2_0_1_1 0
B1_0_2_1 0
B2_0_2_1 0
B1_0_3_1 0
B2_0_3_1 0
B1_0_4_1 0
B2_0_4_1 0
B1_0_5_1 0
B2_0_5_1 0
B1_0_6_1 0
B2_0_6_1 0
B1_0_7_1 0
B2_0_7_1 0
B1_0_8_1 0
B2_0_8_1 0
B1_0_9_1 0
B2_0_9_1 0
B1_0_10_1 0
B2_0_10_1 0
B1_0_11_1 0
B2_0_11_1 0
B1_0_12_1 0
B2_0_12_1 0
B1_0_13_1 0
B2_0_13_1 0
B1_1_0_1 0
B2_1_0_1 0
B1_1_2_1 0
B2_1_2_1 0
B1_1_3_1 0
B2_1_3_1 0
B1_1_4_1 0
B2_1_4_1 0
B1_1_5_1 0
B2_1_5_1 0
B1_1_6_1 0
B2_1_6_1 0
B1_1_7_1 0
B2_1_7_1 0
B1_1_8_1 0
B2_1_8_1 0
B1_1_9_1 0
B2_1_9_1 0
B1_1_10_1 0
B2_1_10_1 0
B1_1_11_1 0
B2_1_11_1 0
B1_1_12_1 0
B2_1_12_1 0
B1_1_13_1 0
B2_1_13_1 0
B1_2_0_1 0
B2_2_0_1 0
B1_2_1_1 0
B2_2_1_1 0
B1_2_3_1 0
B2_2_3_1 0
B1_2_4_1 0
B2_2_4_1 0
B1_2_5_1 0
B2_2_5_1 0
B1_2_6_1 0
B2_2_6_1 0
B1_2_7_1 0
B2_2_7_1 0
B1_2_8_1 0
B2_2_8_1 0
B1_2_9_1 0
B2_2_9_1 0
B1_2_10_1 0
B2_2_10_1 0
B1_2_11_1 0
B2_2_11_1 0
B1_2_12_1 0
B2_2_12_1 0
B1_2_13_1 0
B2_2_13_1 0
B1_3_0_1 0
B2_3_0_1 0
B1_3_1_1 0
B2_3_1_1 0
B1_3_2_1 0
B2_3_2_1 0
B1_3_4_1 0
B2_3_4_1 0
B1_3_5_1 0
B2_3_5_1 0
B1_3_6_1 0
B2_3_6_1 0
B1_3_7_1 0
B2_3_7_1 0
B1_3_8_1 0
B2_3_8_1 0
B1_3_9_1 0
B2_3_9_1 0
B1_3_10_1 0
B2_3_10_1 0
B1_3_11_1 0
B2_3_11_1 0
B1_3_12_1 0
B2_3_12_1 0
B1_3_13_1 0
B2_3_13_1 0
B1_4_0_1 0
B2_4_0_1 0
B1_4_1_1 0
B2_4_1_1 0
B1_4_2_1 0
B2_4_2_1 0
B1_4_3_1 0
B2_4_3_1 0
B1_4_5_1 0
B2_4_5_1 0
B1_4_6_1 0
B2_4_6_1 0
B1_4_7_1 0
B2_4_7_1 0
B1_4_8_1 0
B2_4_8_1 0
B1_4_9_1 0
B2_4_9_1 0
B1_4_10_1 0
B2_4_10_1 0
B1_4_11_1 0
B2_4_11_1 0
B1_4_12_1 0
B2_4_12_1 0
B1_4_13_1 0
B2_4_13_1 0
B1_5_0_1 0
B2_5_0_1 0
B1_5_1_1 0
B2_5_1_1 0
B1_5_2_1 0
B2_5_2_1 0
B1_5_3_1 0
B2_5_3_1 0
B1_5_4_1 0
B2_5_4_1 0
B1_5_6_1 0
B2_5_6_1 0
B1_5_7_1 0
B2_5_7_1 0
B1_5_8_1 0
B2_5_8_1 0
B1_5_9_1 0
B2_5_9_1 0
B1_5_10_1 0
B2_5_10_1 0
B1_5_11_1 0
B2_5_11_1 0
B1_5_12_1 0
B2_5_12_1 0
B1_5_13_1 0
B2_5_13_1 0
B1_6_0_1 0
B2_6_0_1 0
B1_6_1_1 0
B2_6_1_1 0
B1_6_2_1 0
B2_6_2_1 0
B1_6_3_1 0
B2_6_3_1 0
B1_6_4_1 0
B2_6_4_1 0
B1_6_5_1 0
B2_6_5_1 0
B1_6_7_1 0
B2_6_7_1 0
B1_6_8_1 0
B2_6_8_1 0
B1_6_9_1 0
B2_6_9_1 0
B1_6_10_1 0
B2_6_10_1 0
B1_6_11_1 0
B2_6_11_1 0
B1_6_12_1 0
B2_6_12_1 0
B1_6_13_1 0
B2_6_13_1 0
B1_7_0_1 0
B2_7_0_1 0
B1_7_1_1 0
B2_7_1_1 0
B1_7_2_1 0
B2_7_2_1 0
B1_7_3_1 0
B2_7_3_1 0
B1_7_4_1 0
B2_7_4_1 0
B1_7_5_1 0
B2_7_5_1 0
B1_7_6_1 0
B2_7_6_1 0
B1_7_8_1 0
B2_7_8_1 0
B1_7_9_1 0
B2_7_9_1 0
B1_7_10_1 0
B2_7_10_1 0
B1_7_11_1 0
B2_7_11_1 0
B1_7_12_1 0
B2_7_12_1 0
B1_7_13_1 0
B2_7_13_1 0
B1_8_0_1 0
B2_8_0_1 0
B1_8_1_1 0
B2_8_1_1 0
B1_8_2_1 0
B2_8_2_1 0
B1_8_3_1 0
B2_8_3_1 0
B1_8_4_1 0
B2_8_4_1 0
B1_8_5_1 0
B2_8_5_1 0
B1_8_6_1 0
B2_8_6_1 0
B1_8_7_1 0
B2_8_7_1 0
B1_8_9_1 0
B2_8_9_1 0
B1_8_10_1 0
B2_8_10_1 0
B1_8_11_1 0
B2_8_11_1 0
B1_8_12_1 0
B2_8_12_1 0
B1_8_13_1 0
B2_8_13_1 0
B1_9_0_1 0
B2_9_0_1 0
B1_9_1_1 0
B2_9_1_1 0
B1_9_2_1 0
B2_9_2_1 0
B1_9_3_1 0
B2_9_3_1 0
B1_9_4_1 0
B2_9_4_1 0
B1_9_5_1 0
B2_9_5_1 0
B1_9_6_1 0
B2_9_6_1 0
B1_9_7_1 0
B2_9_7_1 0
B1_9_8_1 0
B2_9_8_1 0
B1_9_10_1 0
B2_9_10_1 0
B1_9_11_1 0
B2_9_11_1 0
B1_9_12_1 0
B2_9_12_1 0
B1_9_13_1 0
B2_9_13_1 0
B1_10_0_1 0
B2_10_0_1 0
B1_10_1_1 0
B2_10_1_1 0
B1_10_2_1 0
B2_10_2_1 0
B1_10_3_1 0
B2_10_3_1 0
B1_10_4_1 0
B2_10_4_1 0
B1_10_5_1 0
B2_10_5_1 0
B1_10_6_1 0
B2_10_6_1 0
B1_10_7_1 0
B2_10_7_1 0
B1_10_8_1 0
B2_10_8_1 0
B1_10_9_1 0
B2_10_9_1 0
B1_10_11_1 0
B2_10_11_1 0
B1_10_12_1 0
B2_10_12_1 0
B1_10_13_1 0
B2_10_13_1 0
B1_11_0_1 0
B2_11_0_1 0
B1_11_1_1 0
B2_11_1_1 0
B1_11_2_1 0
B2_11_2_1 0
B1_11_3_1 0
B2_11_3_1 0
B1_11_4_1 0
B2_11_4_1 0
B1_11_5_1 0
B2_11_5_1 0
B1_11_6_1 0
B2_11_6_1 0
B1_11_7_1 0
B2_11_7_1 0
B1_11_8_1 0
B2_11_8_1 0
B1_11_9_1 0
B2_11_9_1 0
B1_11_10_1 0
B2_11_10_1 0
B1_11_12_1 0
B2_11_12_1 0
B1_11_13_1 0
B2_11_13_1 0
B1_12_0_1 0
B2_12_0_1 0
B1_12_1_1 0
B2_12_1_1 0
B1_12_2_1 0
B2_12_2_1 0
B1_12_3_1 0
B2_12_3_1 0
B1_12_4_1 0
B2_12_4_1 0
B1_12_5_1 0
B2_12_5_1 0
B1_12_6_1 0
B2_12_6_1 0
B1_12_7_1 0
B2_12_7_1 0
B1_12_8_1 0
B2_12_8_1 0
B1_12_9_1 0
B2_12_9_1 0
B1_12_10_1 0
B2_12_10_1 0
B1_12_11_1 0
B2_12_11_1 0
B1_12_13_1 0
B2_12_13_1 0
B1_13_0_1 0
B2_13_0_1 0
B1_13_1_1 0
B2_13_1_1 0
B1_13_2_1 0
B2_13_2_1 0
B1_13_3_1 0
B2_13_3_1 0
B1_13_4_1 0
B2_13_4_1 0
B1_13_5_1 0
B2_13_5_1 0
B1_13_6_1 0
B2_13_6_1 0
B1_13_7_1 0
B2_13_7_1 0
B1_13_8_1 0
B2_13_8_1 0
B1_13_9_1 0
B2_13_9_1 0
B1_13_10_1 0
B2_13_10_1 0
B1_13_11_1 0
B2_13_11_1 0
B1_13_12_1 0
B2_13_12_1 0
B1_0_1_2 0
B2_0_1_2 0
B1_0_2_2 0
B2_0_2_2 0
B1_0_3_2 0
B2_0_3_2 0
B1_0_4_2 0
B2_0_4_2 0
B1_0_5_2 0
B2_0_5_2 0
B1_0_6_2 0
B2_0_6_2 0
B1_0_7_2 0
B2_0_7_2 0
B1_0_8_2 0
B2_0_8_2 0
B1_0_9_2 0
B2_0_9_2 0
B1_0_10_2 0
B2_0_10_2 0
B1_0_11_2 0
B2_0_11_2 0
B1_0_12_2 0
B2_0_12_2 0
B1_0_13_2 0
B2_0_13_2 0
B1_1_0_2 0
B2_1_0_2 0
B1_1_2_2 0
B2_1_2_2 0
B1_1_3_2 0
B2_1_3_2 0
B1_1_4_2 0
B2_1_4_2 0
B1_1_5_2 0
B2_1_5_2 0
B1_1_6_2 0
B2_1_6_2 0
B1_1_7_2 0
B2_1_7_2 0
B1_1_8_2 0
B2_1_8_2 0
B1_1_9_2 0
B2_1_9_2 0
B1_1_10_2 0
B2_1_10_2 0
B1_1_11_2 0
B2_1_11_2 0
B1_1_12_2 0
B2_1_12_2 0
B1_1_13_2 0
B2_1_13_2 0
B1_2_0_2 0
B2_2_0_2 0
B1_2_1_2 0
B2_2_1_2 0
B1_2_3_2 0
B2_2_3_2 0
B1_2_4_2 0
B2_2_4_2 0
B1_2_5_2 0
B2_2_5_2 0
B1_2_6_2 0
B2_2_6_2 0
B1_2_7_2 0
B2_2_7_2 0
B1_2_8_2 0
B2_2_8_2 0
B1_2_9_2 0
B2_2_9_2 0
B1_2_10_2 0
B2_2_10_2 0
B1_2_11_2 0
B2_2_11_2 0
B1_2_12_2 0
B2_2_12_2 0
B1_2_13_2 0
B2_2_13_2 0
B1_3_0_2 0
B2_3_0_2 0
B1_3_1_2 0
B2_3_1_2 0
B1_3_2_2 0
B2_3_2_2 0
B1_3_4_2 0
B2_3_4_2 0
B1_3_5_2 0
B2_3_5_2 0
B1_3_6_2 0
B2_3_6_2 0
B1_3_7_2 0
B2_3_7_2 0
B1_3_8_2 0
B2_3_8_2 0
B1_3_9_2 0
B2_3_9_2 0
B1_3_10_2 0
B2_3_10_2 0
B1_3_11_2 0
B2_3_11_2 0
B1_3_12_2 0
B2_3_12_2 0
B1_3_13_2 0
B2_3_13_2 0
B1_4_0_2 0
B2_4_0_2 0
B1_4_1_2 0
B2_4_1_2 0
B1_4_2_2 0
B2_4_2_2 0
B1_4_3_2 0
B2_4_3_2 0
B1_4_5_2 0
B2_4_5_2 0
B1_4_6_2 0
B2_4_6_2 0
B1_4_7_2 0
B2_4_7_2 0
B1_4_8_2 0
B2_4_8_2 0
B1_4_9_2 0
B2_4_9_2 0
B1_4_10_2 0
B2_4_10_2 0
B1_4_11_2 0
B2_4_11_2 0
B1_4_12_2 0
B2_4_12_2 0
B1_4_13_2 0
B2_4_13_2 0
B1_5_0_2 0
B2_5_0_2 0
B1_5_1_2 0
B2_5_1_2 0
B1_5_2_2 0
B2_5_2_2 0
B1_5_3_2 0
B2_5_3_2 0
B1_5_4_2 0
B2_5_4_2 0
B1_5_6_2 0
B2_5_6_2 0
B1_5_7_2 1
B2_5_7_2 1
B1_5_8_2 0
B2_5_8_2 0
B1_5_9_2 0
B2_5_9_2 0
B1_5_10_2 0
B2_5_10_2 0
B1_5_11_2 0
B2_5_11_2 0
B1_5_12_2 0
B2_5_12_2 0
B1_5_13_2 0
B2_5_13_2 0
B1_6_0_2 0
B2_6_0_2 0
B1_6_1_2 0
B2_6_1_2 0
B1_6_2_2 0
B2_6_2_2 0
B1_6_3_2 0
B2_6_3_2 0
B1_6_4_2 0
B2_6_4_2 0
B1_6_5_2 0
B2_6_5_2 0
B1_6_7_2 0
B2_6_7_2 0
B1_6_8_2 0
B2_6_8_2 0
B1_6_9_2 0
B2_6_9_2 0
B1_6_10_2 0
B2_6_10_2 0
B1_6_11_2 0
B2_6_11_2 0
B1_6_12_2 0
B2_6_12_2 0
B1_6_13_2 0
B2_6_13_2 0
B1_7_0_2 0
B2_7_0_2 0
B1_7_1_2 1
B2_7_1_2 1
B1_7_2_2 0
B2_7_2_2 0
B1_7_3_2 0
B2_7_3_2 0
B1_7_4_2 0
B2_7_4_2 0
B1_7_5_2 0
B2_7_5_2 0
B1_7_6_2 0
B2_7_6_2 0
B1_7_8_2 0
B2_7_8_2 0
B1_7_9_2 0
B2_7_9_2 0
B1_7_10_2 0
B2_7_10_2 0
B1_7_11_2 0
B2_7_11_2 0
B1_7_12_2 0
B2_7_12_2 0
B1_7_13_2 0
B2_7_13_2 0
B1_8_0_2 0
B2_8_0_2 0
B1_8_1_2 0
B2_8_1_2 0
B1_8_2_2 0
B2_8_2_2 0
B1_8_3_2 0
B2_8_3_2 0
B1_8_4_2 0
B2_8_4_2 0
B1_8_5_2 0
B2_8_5_2 0
B1_8_6_2 0
B2_8_6_2 0
B1_8_7_2 0
B2_8_7_2 0
B1_8_9_2 0
B2_8_9_2 0
B1_8_10_2 0
B2_8_10_2 0
B1_8_11_2 0
B2_8_11_2 0
B1_8_12_2 0
B2_8_12_2 0
B1_8_13_2 0
B2_8_13_2 0
B1_9_0_2 0
B2_9_0_2 0
B1_9_1_2 0
B2_9_1_2 1
B1_9_2_2 0
B2_9_2_2 0
B1_9_3_2 0
B2_9_3_2 0
B1_9_4_2 0
B2_9_4_2 0
B1_9_5_2 0
B2_9_5_2 0
B1_9_6_2 0
B2_9_6_2 0
B1_9_7_2 0
B2_9_7_2 0
B1_9_8_2 0
B2_9_8_2 0
B1_9_10_2 0
B2_9_10_2 0
B1_9_11_2 0
B2_9_11_2 0
B1_9_12_2 0
B2_9_12_2 0
B1_9_13_2 0
B2_9_13_2 0
B1_10_0_2 0
B2_10_0_2 0
B1_10_1_2 0
B2_10_1_2 0
B1_10_2_2 0
B2_10_2_2 0
B1_10_3_2 0
B2_10_3_2 0
B1_10_4_2 0
B2_10_4_2 0
B1_10_5_2 0
B2_10_5_2 0
B1_10_6_2 0
B2_10_6_2 0
B1_10_7_2 0
B2_10_7_2 0
B1_10_8_2 0
B2_10_8_2 0
B1_10_9_2 1
B2_10_9_2 1
B1_10_11_2 0
B2_10_11_2 0
B1_10_12_2 0
B2_10_12_2 0
B1_10_13_2 0
B2_10_13_2 0
B1_11_0_2 0
B2_11_0_2 0
B1_11_1_2 0
B2_11_1_2 0
B1_11_2_2 0
B2_11_2_2 0
B1_11_3_2 0
B2_11_3_2 0
B1_11_4_2 0
B2_11_4_2 0
B1_11_5_2 0
B2_11_5_2 0
B1_11_6_2 0
B2_11_6_2 0
B1_11_7_2 0
B2_11_7_2 0
B1_11_8_2 0
B2_11_8_2 0
B1_11_9_2 0
B2_11_9_2 0
B1_11_10_2 0
B2_11_10_2 0
B1_11_12_2 0
B2_11_12_2 0
B1_11_13_2 0
B2_11_13_2 0
B1_12_0_2 0
B2_12_0_2 0
B1_12_1_2 0
B2_12_1_2 0
B1_12_2_2 0
B2_12_2_2 0
B1_12_3_2 0
B2_12_3_2 0
B1_12_4_2 0
B2_12_4_2 0
B1_12_5_2 0
B2_12_5_2 0
B1_12_6_2 0
B2_12_6_2 0
B1_12_7_2 0
B2_12_7_2 0
B1_12_8_2 0
B2_12_8_2 0
B1_12_9_2 0
B2_12_9_2 0
B1_12_10_2 0
B2_12_10_2 0
B1_12_11_2 0
B2_12_11_2 0
B1_12_13_2 0
B2_12_13_2 0
B1_13_0_2 0
B2_13_0_2 0
B1_13_1_2 0
B2_13_1_2 0
B1_13_2_2 0
B2_13_2_2 0
B1_13_3_2 0
B2_13_3_2 0
B1_13_4_2 0
B2_13_4_2 0
B1_13_5_2 0
B2_13_5_2 0
B1_13_6_2 0
B2_13_6_2 0
B1_13_7_2 1
B2_13_7_2 1
B1_13_8_2 0
B2_13_8_2 0
B1_13_9_2 0
B2_13_9_2 0
B1_13_10_2 0
B2_13_10_2 0
B1_13_11_2 0
B2_13_11_2 0
B1_13_12_2 0
B2_13_12_2 0
B1_0_1_3 0
B2_0_1_3 0
B1_0_2_3 0
B2_0_2_3 0
B1_0_3_3 0
B2_0_3_3 0
B1_0_4_3 0
B2_0_4_3 0
B1_0_5_3 0
B2_0_5_3 0
B1_0_6_3 0
B2_0_6_3 0
B1_0_7_3 0
B2_0_7_3 0
B1_0_8_3 0
B2_0_8_3 0
B1_0_9_3 0
B2_0_9_3 0
B1_0_10_3 0
B2_0_10_3 0
B1_0_11_3 0
B2_0_11_3 0
B1_0_12_3 0
B2_0_12_3 0
B1_0_13_3 0
B2_0_13_3 0
B1_1_0_3 0
B2_1_0_3 0
B1_1_2_3 0
B2_1_2_3 0
B1_1_3_3 0
B2_1_3_3 0
B1_1_4_3 0
B2_1_4_3 0
B1_1_5_3 0
B2_1_5_3 0
B1_1_6_3 0
B2_1_6_3 0
B1_1_7_3 0
B2_1_7_3 0
B1_1_8_3 0
B2_1_8_3 0
B1_1_9_3 0
B2_1_9_3 0
B1_1_10_3 0
B2_1_10_3 0
B1_1_11_3 0
B2_1_11_3 0
B1_1_12_3 0
B2_1_12_3 0
B1_1_13_3 0
B2_1_13_3 0
B1_2_0_3 0
B2_2_0_3 0
B1_2_1_3 0
B2_2_1_3 0
B1_2_3_3 0
B2_2_3_3 0
B1_2_4_3 0
B2_2_4_3 0
B1_2_5_3 0
B2_2_5_3 0
B1_2_6_3 0
B2_2_6_3 0
B1_2_7_3 0
B2_2_7_3 0
B1_2_8_3 0
B2_2_8_3 0
B1_2_9_3 0
B2_2_9_3 0
B1_2_10_3 0
B2_2_10_3 0
B1_2_11_3 0
B2_2_11_3 0
B1_2_12_3 0
B2_2_12_3 0
B1_2_13_3 0
B2_2_13_3 0
B1_3_0_3 0
B2_3_0_3 0
B1_3_1_3 0
B2_3_1_3 0
B1_3_2_3 0
B2_3_2_3 0
B1_3_4_3 0
B2_3_4_3 0
B1_3_5_3 0
B2_3_5_3 0
B1_3_6_3 1
B2_3_6_3 1
B1_3_7_3 0
B2_3_7_3 0
B1_3_8_3 0
B2_3_8_3 0
B1_3_9_3 0
B2_3_9_3 0
B1_3_10_3 0
B2_3_10_3 0
B1_3_11_3 0
B2_3_11_3 0
B1_3_12_3 0
B2_3_12_3 0
B1_3_13_3 0
B2_3_13_3 0
B1_4_0_3 0
B2_4_0_3 0
B1_4_1_3 0
B2_4_1_3 0
B1_4_2_3 0
B2_4_2_3 0
B1_4_3_3 0
B2_4_3_3 0
B1_4_5_3 0
B2_4_5_3 0
B1_4_6_3 0
B2_4_6_3 0
B1_4_7_3 0
B2_4_7_3 0
B1_4_8_3 0
B2_4_8_3 0
B1_4_9_3 0
B2_4_9_3 0
B1_4_10_3 0
B2_4_10_3 0
B1_4_11_3 0
B2_4_11_3 0
B1_4_12_3 0
B2_4_12_3 0
B1_4_13_3 0
B2_4_13_3 0
B1_5_0_3 0
B2_5_0_3 0
B1_5_1_3 0
B2_5_1_3 0
B1_5_2_3 0
B2_5_2_3 0
B1_5_3_3 0
B2_5_3_3 0
B1_5_4_3 0
B2_5_4_3 0
B1_5_6_3 0
B2_5_6_3 0
B1_5_7_3 0
B2_5_7_3 0
B1_5_8_3 0
B2_5_8_3 0
B1_5_9_3 0
B2_5_9_3 0
B1_5_10_3 0
B2_5_10_3 0
B1_5_11_3 0
B2_5_11_3 0
B1_5_12_3 0
B2_5_12_3 0
B1_5_13_3 0
B2_5_13_3 0
B1_6_0_3 0
B2_6_0_3 0
B1_6_1_3 0
B2_6_1_3 0
B1_6_2_3 0
B2_6_2_3 0
B1_6_3_3 0
B2_6_3_3 0
B1_6_4_3 0
B2_6_4_3 0
B1_6_5_3 0
B2_6_5_3 0
B1_6_7_3 0
B2_6_7_3 0
B1_6_8_3 0
B2_6_8_3 0
B1_6_9_3 0
B2_6_9_3 0
B1_6_10_3 0
B2_6_10_3 0
B1_6_11_3 0
B2_6_11_3 0
B1_6_12_3 0
B2_6_12_3 0
B1_6_13_3 0
B2_6_13_3 0
B1_7_0_3 0
B2_7_0_3 0
B1_7_1_3 0
B2_7_1_3 0
B1_7_2_3 0
B2_7_2_3 0
B1_7_3_3 0
B2_7_3_3 0
B1_7_4_3 0
B2_7_4_3 0
B1_7_5_3 0
B2_7_5_3 0
B1_7_6_3 0
B2_7_6_3 0
B1_7_8_3 0
B2_7_8_3 0
B1_7_9_3 0
B2_7_9_3 0
B1_7_10_3 0
B2_7_10_3 0
B1_7_11_3 0
B2_7_11_3 0
B1_7_12_3 0
B2_7_12_3 0
B1_7_13_3 0
B2_7_13_3 0
B1_8_0_3 0
B2_8_0_3 0
B1_8_1_3 0
B2_8_1_3 0
B1_8_2_3 0
B2_8_2_3 0
B1_8_3_3 0
B2_8_3_3 0
B1_8_4_3 0
B2_8_4_3 0
B1_8_5_3 0
B2_8_5_3 0
B1_8_6_3 0
B2_8_6_3 0
B1_8_7_3 0
B2_8_7_3 0
B1_8_9_3 0
B2_8_9_3 0
B1_8_10_3 0
B2_8_10_3 0
B1_8_11_3 0
B2_8_11_3 0
B1_8_12_3 0
B2_8_12_3 0
B1_8_13_3 0
B2_8_13_3 0
B1_9_0_3 0
B2_9_0_3 0
B1_9_1_3 0
B2_9_1_3 0
B1_9_2_3 0
B2_9_2_3 0
B1_9_3_3 0
B2_9_3_3 0
B1_9_4_3 0
B2_9_4_3 0
B1_9_5_3 0
B2_9_5_3 0
B1_9_6_3 0
B2_9_6_3 0
B1_9_7_3 0
B2_9_7_3 0
B1_9_8_3 0
B2_9_8_3 0
B1_9_10_3 0
B2_9_10_3 0
B1_9_11_3 0
B2_9_11_3 0
B1_9_12_3 0
B2_9_12_3 0
B1_9_13_3 0
B2_9_13_3 0
B1_10_0_3 0
B2_10_0_3 0
B1_10_1_3 0
B2_10_1_3 0
B1_10_2_3 0
B2_10_2_3 0
B1_10_3_3 0
B2_10_3_3 0
B1_10_4_3 0
B2_10_4_3 0
B1_10_5_3 0
B2_10_5_3 0
B1_10_6_3 0
B2_10_6_3 0
B1_10_7_3 0
B2_10_7_3 0
B1_10_8_3 0
B2_10_8_3 0
B1_10_9_3 0
B2_10_9_3 0
B1_10_11_3 0
B2_10_11_3 0
B1_10_12_3 0
B2_10_12_3 0
B1_10_13_3 0
B2_10_13_3 0
B1_11_0_3 0
B2_11_0_3 0
B1_11_1_3 0
B2_11_1_3 0
B1_11_2_3 0
B2_11_2_3 0
B1_11_3_3 0
B2_11_3_3 0
B1_11_4_3 0
B2_11_4_3 0
B1_11_5_3 0
B2_11_5_3 0
B1_11_6_3 0
B2_11_6_3 0
B1_11_7_3 0
B2_11_7_3 0
B1_11_8_3 0
B2_11_8_3 0
B1_11_9_3 0
B2_11_9_3 0
B1_11_10_3 0
B2_11_10_3 0
B1_11_12_3 1
B2_11_12_3 1
B1_11_13_3 0
B2_11_13_3 0
B1_12_0_3 0
B2_12_0_3 0
B1_12_1_3 0
B2_12_1_3 0
B1_12_2_3 0
B2_12_2_3 0
B1_12_3_3 0
B2_12_3_3 0
B1_12_4_3 0
B2_12_4_3 0
B1_12_5_3 0
B2_12_5_3 0
B1_12_6_3 0
B2_12_6_3 0
B1_12_7_3 0
B2_12_7_3 0
B1_12_8_3 0
B2_12_8_3 0
B1_12_9_3 0
B2_12_9_3 0
B1_12_10_3 0
B2_12_10_3 0
B1_12_11_3 0
B2_12_11_3 0
B1_12_13_3 0
B2_12_13_3 0
B1_13_0_3 0
B2_13_0_3 0
B1_13_1_3 0
B2_13_1_3 0
B1_13_2_3 0
B2_13_2_3 0
B1_13_3_3 0
B2_13_3_3 0
B1_13_4_3 0
B2_13_4_3 0
B1_13_5_3 0
B2_13_5_3 0
B1_13_6_3 0
B2_13_6_3 0
B1_13_7_3 0
B2_13_7_3 0
B1_13_8_3 0
B2_13_8_3 0
B1_13_9_3 0
B2_13_9_3 0
B1_13_10_3 0
B2_13_10_3 0
B1_13_11_3 0
B2_13_11_3 0
B1_13_12_3 0
B2_13_12_3 0
x_0 76
y_0 0
x_1 5.9622641509433961e+01
y_1 0
x_2 1.6562264150943398e+02
y_2 0
x_3 1.3867924528301887e+02
y_3 34
x_4 1.4162264150943398e+02
y_4 0
x_5 1.0598113207547169e+02
y_5 68
x_6 135
y_6 0
x_7 6.1981132075471692e+01
y_7 24
x_8 103
y_8 0
x_9 2.2981132075471688e+01
y_9 24
x_10 3.5981132075472956e+01
y_10 88
x_11 51
y_11 65
x_12 42
y_12 0
x_13 7.4981132075471692e+01
y_13 68
